Traveling Salesman Problem/TSP_generados/Aleatorio1621103510_15.tsp
NAME: Aleatorio1621103510_15.tsp
COMMENT: Randomly generated scenario
TYPE: TSP
DIMENSION: 15
EDGE_WEIGHT_TYPE: ATT
NODE_COORD_SECTION
1 40.7 45.8
2 0.94 19.03
3 2.09 38.19
4 23.12 36.2
5 29.62 21.85
6 7.12 13.13
7 49.7 47.07
8 20.58 39.16
9 25.21 14.94
10 5.13 31.31
11 32.42 5.91
12 17.91 29.0
13 43.88 13.44
14 1.06 14.15
15 34.36 4.17
