Traveling Salesman Problem/TSP_generados/Aleatorio1621103510_15.opt.tour
NAME: Aleatorio1621103510_15.opt.tour
COMMENT: Optimal solution for Aleatorio1621103510_15 (185.468685533387)
TYPE: TOUR
DIMENSION: 15
TOUR_SECTION
1 7 13 15 11 5 9 6 14 2 10 3 12 4 8
-1
EOF
